p cnf 474
-3 1
-6 -41
-7 -45
-8 -53
-9 -62
-10 -64
-11 3
-12 4
-13 5
-14 6
-15 7
-16 8
-17 9
-18 10
-19 1
-19 2
-1 -2 19
-20 2
-20 -19
-2 19 20
-21 -2
-21 19
2 -19 21
-22 -20
-22 -21
20 21 22
-23 2
-23 19
-2 -19 23
-24 1
-24 -22
-1 22 24
-25 1
-25 23
-1 -23 25
-26 -22
-26 23
22 -23 26
-27 -24
-27 25
24 -25 27
-28 24
-28 -25
-24 25 28
-29 -27
-29 -28
27 28 29
-30 24
-30 25
-24 -25 30
-31 -22
-31 -30
22 30 31
-32 22
-32 30
-22 -30 32
-33 -31
-33 -32
31 32 33
-34 -22
-34 30
22 -30 34
-35 26
-35 -34
-26 34 35
-36 -26
-36 34
26 -34 36
-37 -35
-37 -36
35 36 37
-38 26
-38 34
-26 -34 38
-39 -25
-39 -29
25 29 39
-40 25
-40 29
-25 -29 40
-41 -39
-41 -40
39 40 41
-42 25
-42 -29
-25 29 42
-43 -33
-43 -42
33 42 43
-44 33
-44 42
-33 -42 44
-45 -43
-45 -44
43 44 45
-46 -33
-46 42
33 -42 46
-47 -26
-47 -37
26 37 47
-48 26
-48 37
-26 -37 48
-49 -47
-49 -48
47 48 49
-50 26
-50 -37
-26 37 50
-51 -46
-51 -49
46 49 51
-52 46
-52 49
-46 -49 52
-53 -51
-53 -52
51 52 53
-54 46
-54 -49
-46 49 54
-55 -50
-55 -54
50 54 55
-56 -23
-56 38
23 -38 56
-57 23
-57 -38
-23 38 57
-58 -56
-58 -57
56 57 58
-59 23
-59 38
-23 -38 59
-60 55
-60 -58
-55 58 60
-61 -55
-61 58
55 -58 61
-62 -60
-62 -61
60 61 62
-63 -55
-63 -58
55 58 63
-64 -59
-64 -63
59 63 64
-65 1
-65 -3
-1 3 65
-66 -1
-66 3
1 -3 66
-67 -65
-67 -66
65 66 67
-68 1
-68 3
-1 -3 68
-69 4
-69 -68
-4 68 69
-70 -4
-70 68
4 -68 70
-71 -69
-71 -70
69 70 71
-72 4
-72 68
-4 -68 72
-73 5
-73 -72
-5 72 73
-74 -5
-74 72
5 -72 74
-75 -73
-75 -74
73 74 75
-76 5
-76 72
-5 -72 76
-77 -6
-77 -41
6 41 77
-78 6
-78 41
-6 -41 78
-79 -77
-79 -78
77 78 79
-80 6
-80 -41
-6 41 80
-81 -76
-81 -79
76 79 81
-82 76
-82 79
-76 -79 82
-83 -81
-83 -82
81 82 83
-84 76
-84 -79
-76 79 84
-85 -80
-85 -84
80 84 85
-86 -7
-86 -45
7 45 86
-87 7
-87 45
-7 -45 87
-88 -86
-88 -87
86 87 88
-89 7
-89 -45
-7 45 89
-90 85
-90 -88
-85 88 90
-91 -85
-91 88
85 -88 91
-92 -90
-92 -91
90 91 92
-93 -85
-93 -88
85 88 93
-94 -89
-94 -93
89 93 94
-95 -8
-95 -53
8 53 95
-96 8
-96 53
-8 -53 96
-97 -95
-97 -96
95 96 97
-98 8
-98 -53
-8 53 98
-99 94
-99 -97
-94 97 99
-100 -94
-100 97
94 -97 100
-101 -99
-101 -100
99 100 101
-102 -94
-102 -97
94 97 102
-103 -98
-103 -102
98 102 103
-104 -9
-104 -62
9 62 104
-105 9
-105 62
-9 -62 105
-106 -104
-106 -105
104 105 106
-107 9
-107 -62
-9 62 107
-108 103
-108 -106
-103 106 108
-109 -103
-109 106
103 -106 109
-110 -108
-110 -109
108 109 110
-111 -103
-111 -106
103 106 111
-112 -107
-112 -111
107 111 112
-113 -10
-113 -64
10 64 113
-114 10
-114 64
-10 -64 114
-115 -113
-115 -114
113 114 115
-116 10
-116 -64
-10 64 116
-117 112
-117 -115
-112 115 117
-118 -112
-118 115
112 -115 118
-119 -117
-119 -118
117 118 119
-120 -112
-120 -115
112 115 120
-121 -116
-121 -120
116 120 121
-122 11
-122 -67
-11 67 122
-123 -11
-123 67
11 -67 123
-124 -122
-124 -123
122 123 124
-125 12
-125 -71
-12 71 125
-126 -12
-126 71
12 -71 126
-127 -125
-127 -126
125 126 127
-128 13
-128 -75
-13 75 128
-129 -13
-129 75
13 -75 129
-130 -128
-130 -129
128 129 130
-131 14
-131 -83
-14 83 131
-132 -14
-132 83
14 -83 132
-133 -131
-133 -132
131 132 133
-134 15
-134 -92
-15 92 134
-135 -15
-135 92
15 -92 135
-136 -134
-136 -135
134 135 136
-137 16
-137 -101
-16 101 137
-138 -16
-138 101
16 -101 138
-139 -137
-139 -138
137 138 139
-140 17
-140 -110
-17 110 140
-141 -17
-141 110
17 -110 141
-142 -140
-142 -141
140 141 142
-143 18
-143 -119
-18 119 143
-144 -18
-144 119
18 -119 144
-145 -143
-145 -144
143 144 145
-146 -124
-146 -127
124 127 146
-147 -130
-147 -133
130 133 147
-148 -136
-148 -139
136 139 148
-149 -142
-149 -145
142 145 149
-150 146
-150 147
-146 -147 150
-151 148
-151 149
-148 -149 151
-152 150
-152 151
-150 -151 152
-153 121
-153 152
-121 -152 153
-154 -1
-154 -2
1 2 154
-155 -3
-155 -4
3 4 155
-156 -5
-156 -6
5 6 156
-157 -7
-157 -8
7 8 157
-158 -9
-158 -10
9 10 158
-159 155
-159 156
-155 -156 159
-160 157
-160 158
-157 -158 160
-161 159
-161 160
-159 -160 161
-162 -11
-162 -12
11 12 162
-163 -13
-163 -14
13 14 163
-164 -15
-164 -16
15 16 164
-165 -17
-165 -18
17 18 165
-166 162
-166 163
-162 -163 166
-167 164
-167 165
-164 -165 167
-168 166
-168 167
-166 -167 168
-169 -154
-169 -161
154 161 169
-170 -168
-170 169
168 -169 170
-171 153
-171 170
-153 -170 171
171
